param set_len = 18;
param target_sum = 2407043400;
param values := [1] 104288149 [2] 249570874 [3] 111684777 [4] 46370169 [5] 233860477 [6] 383796405 [7] 479402940 [8] 320019834 [9] 456798238 [10] 266828756 [11] 297717960 [12] 311184559 [13] 24944486 [14] 518563990 [15] 157257769 [16] 405661981 [17] 334792013 [18] 36253524 ;
